"ID","Collection","ENS","Minting Date","Tx Count","Power"
"1","0xea5ce2f9a33d36534ee3409d81322feb3f91ed8a","","Thu 09 Mar 2023 18:54:25 GMT","1","6"
"2","0xf6b6f07862a02c85628b3a9688beae07fea9c863","poap.eth","Thu 09 Mar 2023 18:54:25 GMT","1","1483"
"3","0x9c9c51e479a531e714594ab04db4b79a39662991","dmf7z.eth","Thu 09 Mar 2023 18:54:25 GMT","1","70"
"4","0xab0db30354d9e0382ad1cb30ef82108e38bfdde0","","Thu 09 Mar 2023 18:54:25 GMT","1","1"
"5","0x13319b164837034d24c21ba5eec5aa3b8e13c4a8","","Thu 09 Mar 2023 18:54:25 GMT","1","1"
"6","0x4e76245544a8e40501eaf0eba307249ab80bbbe4","gomox.eth","Thu 09 Mar 2023 18:54:25 GMT","1","28"
"7","0x614a61a3b7f2fd8750acaad63b2a0cfe8b8524f1","reneil.eth","Thu 09 Mar 2023 18:54:25 GMT","1","128"
"8","0x123d956563261571569233624fbec7c9fe5a0af2","","Thu 09 Mar 2023 18:54:25 GMT","1","1"
"9","0x72ba1965320ab5352fd6d68235cc3c5306a6ffa2","nanexcool.eth","Thu 09 Mar 2023 18:54:25 GMT","1","264"
"10","0xa3f0d54a263520375e01c17b8ffbd3190745bbd9","","Thu 09 Mar 2023 18:54:25 GMT","1","1"
"12","0x68f9d801c96ac6ccf562f3600cef77c4504449b6","brukhman.eth","Thu 09 Mar 2023 18:54:25 GMT","1","27"
"13","0x080c006c972121f46b7ef5c00b27d1b2500c90d8","","Thu 09 Mar 2023 18:54:25 GMT","1","4"
"14","0x5585579b5f7bd0a67edd3b86510defa844a9af58","","Thu 09 Mar 2023 18:54:25 GMT","1","5"
"15","0x423cfaa3ab7b9f63743a23fc3b77e2a951385fe4","","Thu 09 Mar 2023 18:54:25 GMT","2","12"
"16","0x8dbbca57ea56290efa14d835bbfd34faf1d89753","vonmises.eth","Thu 09 Mar 2023 18:54:25 GMT","2","40"
"17","0x5a384227b65fa093dec03ec34e111db80a040615","matoken.eth","Thu 09 Mar 2023 18:54:25 GMT","1","205"
"18","0xa00567bd0463172dc344cb666d7fc0a71bc29742","","Thu 09 Mar 2023 18:54:25 GMT","1","5"
"19","0x3203b7a45b2af35c6bee7871a39f54d0dfdf777e","","Thu 09 Mar 2023 18:54:25 GMT","1","7"
"20","0x8dbbca57ea56290efa14d835bbfd34faf1d89753","vonmises.eth","Thu 09 Mar 2023 18:54:25 GMT","2","40"
"21","0x3bdcd88a9639f85818ed5a35e2abf6292d9b0377","jeffc.eth","Thu 09 Mar 2023 18:54:25 GMT","2","45"
"23","0xec982f5400adffb0e35fe3e855e2b385377ad04b","","Thu 09 Mar 2023 18:54:25 GMT","1","2"
"24","0x8c3b776bdac9a7a4facc3cc20cdb40832bff9005","justinleroux.eth","Thu 09 Mar 2023 18:54:25 GMT","2","130"
"25","0x811a16ebf03c20d9333ff5321372d86da9ad1f2e","","Thu 09 Mar 2023 18:54:25 GMT","1","11"
"26","0x819d64ac448dfed4615079c8110dc65a7571db8f","","Thu 09 Mar 2023 18:54:25 GMT","1","1"
"27","0x4a8f6434499f8c9371a98db9824b4b8ae2ba9fe2","wallet.alexfisher.eth","Thu 09 Mar 2023 18:54:25 GMT","1","91"
"28","0x8d435d7b2d9bfb30a9447bc8db21924d5a62cfe2","","Thu 09 Mar 2023 18:54:25 GMT","3","2"
"29","0x1f70005488b5fc5e0221a06bf6de5de72a1f0d83","","Thu 09 Mar 2023 18:54:25 GMT","1","2"
"30","0x982fcc072c33585fc4408b3c42a472de901ff75d","","Thu 09 Mar 2023 18:54:25 GMT","1","1"
"31","0xae7f5df4d8f8410e182e6822ea748b0e95995c4e","","Thu 09 Mar 2023 18:54:25 GMT","1","6"
"32","0x8dbbca57ea56290efa14d835bbfd34faf1d89753","vonmises.eth","Thu 09 Mar 2023 18:54:25 GMT","2","40"
"34","0x06f2d637be4e461fed8386204da8d0d1a1939ce9","","Thu 09 Mar 2023 18:54:25 GMT","1","1"
"35","0xb42446bf01056bc4055fd458c522489e84b58be6","","Thu 09 Mar 2023 18:54:25 GMT","1","1"
"36","0x9ee5e3ff06425cf972e77c195f70ecb18ac23d7f","cybourgeoisie.eth","Thu 09 Mar 2023 18:54:25 GMT","2","9"
"37","0x43afd60f566707c08f3f48ca411fe299661fe353","","Thu 09 Mar 2023 18:54:25 GMT","1","1"
"38","0x1c3113ef975143f18fdde72718d64b3e936c5dc8","","Thu 09 Mar 2023 18:54:25 GMT","2","1"
"39","0xf0044084b22097a0b34a316238b8f945c55640d7","","Thu 09 Mar 2023 18:54:25 GMT","1","2"
"40","0xe583f95bf95d0883f94efe844442c8bfc9dd7a7f","","Thu 09 Mar 2023 18:54:25 GMT","1","3"
"41","0x238751d1af7ceb2c840075908221434a882a9807","","Thu 09 Mar 2023 18:54:25 GMT","1","3"
"42","0x48a63097e1ac123b1f5a8bbffafa4afa8192fab0","ceresstation.eth","Thu 09 Mar 2023 18:54:25 GMT","1","21"
"43","0x5a2a64f7e9c820069378df45288e593b6768447a","","Thu 09 Mar 2023 18:54:25 GMT","1","3"
"45","0x76610e6027f7fb69c6db662d9aa11c5fb759de7f","","Thu 09 Mar 2023 18:54:25 GMT","1","2"
"46","0x22d88cf1bcc9a9b7783c924ed24925602097e821","","Thu 09 Mar 2023 18:54:25 GMT","1","6"
"47","0x554c5af96e9e3c05aec01ce18221d0dd25975ab4","","Thu 09 Mar 2023 18:54:25 GMT","1","22"
"48","0x57757e3d981446d585af0d9ae4d7df6d64647806","patricioworthalter.eth","Thu 09 Mar 2023 18:54:25 GMT","1","23"
"49","0x34aa3f359a9d614239015126635ce7732c18fdf3","austingriffith.eth","Thu 09 Mar 2023 18:54:25 GMT","1","49"
"50","0x6085bb952ca19d30b97468cb31ec55cef7cd1e66","","Thu 09 Mar 2023 18:54:25 GMT","1","3"
"51","0x60dad8350bba2b4f2c8fbe5d1c2a25d79a1fc8d5","0xtoucan.eth","Thu 09 Mar 2023 18:54:25 GMT","3","134"
"52","0xe8d848debb3a3e12aa815b15900c8e020b863f31","dennisonbertram.eth","Thu 09 Mar 2023 18:54:25 GMT","1","23"
"53","0x839395e20bbb182fa440d08f850e6c7a8f6f0780","griff.eth","Thu 09 Mar 2023 18:54:25 GMT","1","141"
"54","0x1e55aa9396b648e7654910a5126971fb9bac0a36","","Thu 09 Mar 2023 18:54:25 GMT","1","4"
"56","0x8bf72fce8eb936a270558f490e1df6f9d2c0f833","","Thu 09 Mar 2023 18:54:25 GMT","1","12"
"57","0x983110309620d911731ac0932219af06091b6744","brantly.eth","Thu 09 Mar 2023 18:54:25 GMT","2","504"
"58","0x624ec4a3ffa86bcef4d06706034d1fddbc9f56b4","","Thu 09 Mar 2023 18:54:25 GMT","1","16"
"59","0x96d4f0e75ae86e4c46cd8e9d4ae2f2309bd6ec45","","Thu 09 Mar 2023 18:54:25 GMT","1","22"
"60","0xc616c6868eabdf04b1d63447d5f695d92ab205cd","","Thu 09 Mar 2023 18:54:25 GMT","1","5"
"61","0x438d450ac2f6cca43883ee6d340fc796edd399ab","webbonweb.eth","Thu 09 Mar 2023 18:54:25 GMT","2","5"
"62","0xa1b02d8c67b0fdcf4e379855868deb470e169cfb","markpereira.eth","Thu 09 Mar 2023 18:54:25 GMT","1","17"
"63","0xfa53d837b5ddd616007f91487f041d27edb683a0","","Thu 09 Mar 2023 18:54:25 GMT","2","32"
"64","0xabb0c7f7e10db00b52fef6bb3066c7f985c4c97f","","Thu 09 Mar 2023 18:54:25 GMT","1","4"
"65","0xdaafc1035c29841edbc7e4fd3e633061dcf29c48","","Thu 09 Mar 2023 18:54:25 GMT","1","2"
"67","0x0b66da2871b9545eda8082d9f78f09c3e3d7dc5e","","Thu 09 Mar 2023 18:54:25 GMT","1","9"
"68","0x0078dcf16bd12320bab31a856e9497245ff50bfc","","Thu 09 Mar 2023 18:54:25 GMT","1","8"
"69","0x6c82b6211f27d0cba778cfd3078da165289b178f","","Thu 09 Mar 2023 18:54:25 GMT","1","2"
"70","0x0b9df1c24830ba18c097d97aaeda925b6ca70c84","","Thu 09 Mar 2023 18:54:25 GMT","1","10"
"71","0x8dbbca57ea56290efa14d835bbfd34faf1d89753","vonmises.eth","Thu 09 Mar 2023 18:54:25 GMT","2","40"
"1223","0xac1c5131f0a85eafaa637a1ab342ed8e7771212d","","Thu 09 Mar 2023 18:54:25 GMT","1","621"
"1509","0xfa9340dd02534c60f87c71dc09caa944f63e4378","bjeter.argent.xyz","Thu 09 Mar 2023 18:54:25 GMT","1","18"
"1523","0x8d1dabb8d6ad396274f038434cb623fa6102cecf","","Thu 09 Mar 2023 18:54:25 GMT","1","10"
"1535","0xe8099ce185aa25162d74d0455080c5b7c08c1660","","Thu 09 Mar 2023 18:54:25 GMT","1","11"
"2644","0x88f4a2cf89c353af174d3a9e02da7acbbbf436a4","","Thu 09 Mar 2023 18:54:25 GMT","1","38"
"2649","0xcc0fbb4187614c664b1af145ceb7bb8c480b3fab","tomteman.eth","Thu 09 Mar 2023 18:54:25 GMT","1","13"
"3766","0x8584e54df79d9ea3216195ce034977968f01457c","","Thu 09 Mar 2023 18:54:25 GMT","1","6"
"3965","0x642f7f4d78e8476b5e8d7b5bf97c1a18be6555ac","andra.argent.xyz","Thu 09 Mar 2023 18:54:25 GMT","1","5"
"3974","0x8d55e7de182dcc7a6627fd424cc0a3a00e049465","rinkebywhale.eth","Thu 09 Mar 2023 18:54:25 GMT","1","4"
"4268","0xc55e5dadfa858ca2048d5bb0b536f84913cf4f19","","Thu 09 Mar 2023 18:54:25 GMT","1","145"
"4518","0x5a3218fe0a25542cb1b3a282f144a92a65562130","","Thu 09 Mar 2023 18:54:25 GMT","1","3"
"4561","0x476791bb7a946fddb419de7f6b90f7219946f319","","Thu 09 Mar 2023 18:54:25 GMT","1","17"
"4972","0x9475a4c1bf5fc80ae079303f14b523da19619c16","marto.eth","Thu 09 Mar 2023 18:54:25 GMT","1","203"
"5257","0x8d6e448b0cf0ec09e3b812a7714ba52354a0cf33","","Thu 09 Mar 2023 18:54:25 GMT","1","13"
"5287","0x4c0a466df0628fe8699051b3ac6506653191cc21","trent.eth","Thu 09 Mar 2023 18:54:25 GMT","1","56"
"5319","0x9428e55418755b2f902d3b1f898a871ab5634182","catman.eth","Thu 09 Mar 2023 18:54:25 GMT","1","23"
"5367","0x8dc296c44155b40e700690234ce69c1dacd3ed12","lenklah.eth","Thu 09 Mar 2023 18:54:25 GMT","1","94"
"6138","0x7c080bf97bf09b8ed84784f08d5c8663b7c0d7c7","libby.eth","Thu 09 Mar 2023 18:54:25 GMT","1","6"
"6909","0xd3ed2b8756b942c98c851722f3bd507a17b4745f","","Thu 09 Mar 2023 18:54:25 GMT","1","153"
"38498","0xe7fe2a9d8fa0f37b33f994dff5b4a3219fe343a2","","Tue 08 Dec 2020 16:22:30 GMT","1","47"
"40221","0x4430edfbb4777b3f8e5b951803657703039d688b","agustincito.eth","Thu 17 Dec 2020 14:33:00 GMT","1","313"
"261717","0x2fe31e981032bfcd71cce70a4ab5e4214f8b4860","liam.eth","Sun 23 May 2021 22:06:55 GMT","1","49"
"4353525","0x6f1b12a415e035eebdc8559130ea8bdb96add48c","pratik.eth","Fri 11 Mar 2022 14:54:25 GMT","1","148"
"5653986","0xa903b19357b96603c7574fe9145fd8ab6bd3c6f1","","Wed 21 Sep 2022 18:35:40 GMT","1","18"